outputs/case_441.model.txt
credit_exposure_small_loans = 0
credit_exposure_related_person_total = 0
credit_exposure_related_enterprise_total = 0
credit_exposure_legal_person_total = 0
credit_exposure_related_person_natural_total = 1476000000
credit_exposure_related_person_unsecured_total = 0
net_worth = 24600000000
credit_exposure_government = 0
credit_exposure_natural_person_unsecured = 0
credit_exposure_related_person_natural_unsecured = 0
credit_exposure_public_enterprise_total = 0
credit_exposure_natural_person_total = 0
credit_exposure_legal_person_unsecured = 0
credit_exposure_policy_approved = 0
credit_exposure_related_enterprise_unsecured = 0
credit_exposure_secured_bonds = 0
credit_limit_natural_person_unsecured = 1
credit_limit_legal_person_unsecured = 1
credit_limit_related_enterprise_unsecured = 1
credit_exclusion_government = 0
credit_exclusion_small_loans = 0
credit_exclusion_policy_approved = 0
credit_limit_related_person_total = 1
credit_limit_legal_person_total = 1
credit_limit_related_person_unsecured_total = 1
penalty = False
credit_exclusion_secured_bonds = 0
credit_limit_related_person_natural_total = 1
credit_limit_public_enterprise_total = 1
credit_limit_natural_person_total = 1
credit_limit_related_enterprise_total = 1
credit_limit_related_person_natural_unsecured = 1